Version identifier: 22.1.0.0 | 2022-03-09 | 1a383f8ce
CPXPARAM_Threads                                 1
CPXPARAM_MIP_Strategy_VariableSelect             3
CPXPARAM_TimeLimit                               599.99883205599997
Tried aggregator 1 time.
MIP Presolve eliminated 13 rows and 0 columns.
MIP Presolve modified 4 coefficients.
Reduced MIP has 324 rows, 1300 columns, and 13106 nonzeros.
Reduced MIP has 1300 binaries, 0 generals, 0 SOSs, and 0 indicators.
Presolve time = 0.01 sec. (8.15 ticks)
Found incumbent of value 0.000000 after 0.03 sec. (21.32 ticks)

Root node processing (before b&c):
  Real time             =    0.03 sec. (21.37 ticks)
Sequential b&c:
  Real time             =    0.00 sec. (0.00 ticks)
                          ------------
Total (root+branch&cut) =    0.03 sec. (21.37 ticks)
Version identifier: 22.1.0.0 | 2022-03-09 | 1a383f8ce
CPXPARAM_Threads                                 1
CPXPARAM_MIP_Strategy_VariableSelect             3
CPXPARAM_TimeLimit                               599.96110379599997
Tried aggregator 1 time.
MIP Presolve eliminated 13 rows and 0 columns.
MIP Presolve modified 2 coefficients.
Reduced MIP has 468 rows, 1900 columns, and 19442 nonzeros.
Reduced MIP has 1900 binaries, 0 generals, 0 SOSs, and 0 indicators.
Presolve time = 0.01 sec. (11.79 ticks)
Probing time = 0.00 sec. (3.47 ticks)
Tried aggregator 1 time.
Detecting symmetries...
Reduced MIP has 468 rows, 1900 columns, and 19442 nonzeros.
Reduced MIP has 1900 binaries, 0 generals, 0 SOSs, and 0 indicators.
Presolve time = 0.02 sec. (13.61 ticks)
Probing time = 0.00 sec. (3.47 ticks)
Clique table members: 302.
MIP emphasis: balance optimality and feasibility.
MIP search method: dynamic search.
Parallel mode: none, using 1 thread.
Root relaxation solution time = 0.04 sec. (41.20 ticks)

        Nodes                                         Cuts/
   Node  Left     Objective  IInf  Best Integer    Best Bound    ItCnt     Gap

      0     0        0.0000   292                      0.0000      640         
*     0+    0                            0.0000        0.0000             0.00%
      0     0        cutoff              0.0000        0.0000      640    0.00%
Elapsed time = 0.36 sec. (325.79 ticks, tree = 0.01 MB, solutions = 1)

Root node processing (before b&c):
  Real time             =    0.36 sec. (325.85 ticks)
Sequential b&c:
  Real time             =    0.00 sec. (0.00 ticks)
                          ------------
Total (root+branch&cut) =    0.36 sec. (325.85 ticks)
Version identifier: 22.1.0.0 | 2022-03-09 | 1a383f8ce
CPXPARAM_Threads                                 1
CPXPARAM_MIP_Strategy_VariableSelect             3
CPXPARAM_TimeLimit                               599.58726498399994
Tried aggregator 1 time.
MIP Presolve eliminated 13 rows and 0 columns.
MIP Presolve modified 2 coefficients.
Reduced MIP has 540 rows, 2200 columns, and 22610 nonzeros.
Reduced MIP has 2200 binaries, 0 generals, 0 SOSs, and 0 indicators.
Presolve time = 0.02 sec. (13.67 ticks)
Probing time = 0.00 sec. (3.59 ticks)
Tried aggregator 1 time.
Detecting symmetries...
Reduced MIP has 540 rows, 2200 columns, and 22610 nonzeros.
Reduced MIP has 2200 binaries, 0 generals, 0 SOSs, and 0 indicators.
Presolve time = 0.02 sec. (15.86 ticks)
Probing time = 0.00 sec. (3.59 ticks)
Clique table members: 350.
MIP emphasis: balance optimality and feasibility.
MIP search method: dynamic search.
Parallel mode: none, using 1 thread.
Root relaxation solution time = 0.09 sec. (98.44 ticks)

        Nodes                                         Cuts/
   Node  Left     Objective  IInf  Best Integer    Best Bound    ItCnt     Gap

      0     0        0.0000   356                      0.0000     1047         
*     0+    0                            0.0000        0.0000             0.00%
      0     0        cutoff              0.0000        0.0000     1047    0.00%
Elapsed time = 0.74 sec. (752.12 ticks, tree = 0.01 MB, solutions = 1)

Root node processing (before b&c):
  Real time             =    0.74 sec. (752.19 ticks)
Sequential b&c:
  Real time             =    0.00 sec. (0.00 ticks)
                          ------------
Total (root+branch&cut) =    0.74 sec. (752.19 ticks)
Version identifier: 22.1.0.0 | 2022-03-09 | 1a383f8ce
CPXPARAM_Threads                                 1
CPXPARAM_MIP_Strategy_VariableSelect             3
CPXPARAM_TimeLimit                               598.83442722200004
Tried aggregator 1 time.
MIP Presolve eliminated 13 rows and 0 columns.
MIP Presolve modified 2 coefficients.
Reduced MIP has 576 rows, 2350 columns, and 24194 nonzeros.
Reduced MIP has 2350 binaries, 0 generals, 0 SOSs, and 0 indicators.
Presolve time = 0.02 sec. (14.63 ticks)
Probing time = 0.00 sec. (3.62 ticks)
Tried aggregator 1 time.
Detecting symmetries...
Reduced MIP has 576 rows, 2350 columns, and 24194 nonzeros.
Reduced MIP has 2350 binaries, 0 generals, 0 SOSs, and 0 indicators.
Presolve time = 0.02 sec. (16.99 ticks)
Probing time = 0.00 sec. (3.62 ticks)
Clique table members: 374.
MIP emphasis: balance optimality and feasibility.
MIP search method: dynamic search.
Parallel mode: none, using 1 thread.
Root relaxation solution time = 0.13 sec. (135.32 ticks)

        Nodes                                         Cuts/
   Node  Left     Objective  IInf  Best Integer    Best Bound    ItCnt     Gap

      0     0        0.0000   427                      0.0000     1253         
      0     0        0.0000   100                  Cliques: 1     1259         
      0     0        0.0000   133                    Cuts: 51     1942         
*     0+    0                            0.0000        0.0000             0.00%
      0     0        cutoff              0.0000        0.0000     1942    0.00%
Elapsed time = 1.63 sec. (1650.57 ticks, tree = 0.01 MB, solutions = 1)

Clique cuts applied:  2
Zero-half cuts applied:  1
Gomory fractional cuts applied:  1

Root node processing (before b&c):
  Real time             =    1.64 sec. (1650.73 ticks)
Sequential b&c:
  Real time             =    0.00 sec. (0.00 ticks)
                          ------------
Total (root+branch&cut) =    1.64 sec. (1650.73 ticks)
Version identifier: 22.1.0.0 | 2022-03-09 | 1a383f8ce
CPXPARAM_Threads                                 1
CPXPARAM_MIP_Strategy_VariableSelect             3
CPXPARAM_TimeLimit                               597.18555606200005
Tried aggregator 1 time.
MIP Presolve eliminated 13 rows and 0 columns.
MIP Presolve modified 2 coefficients.
Reduced MIP has 594 rows, 2425 columns, and 24986 nonzeros.
Reduced MIP has 2425 binaries, 0 generals, 0 SOSs, and 0 indicators.
Presolve time = 0.02 sec. (15.10 ticks)
Probing time = 0.00 sec. (3.65 ticks)
Tried aggregator 1 time.
Detecting symmetries...
Reduced MIP has 594 rows, 2425 columns, and 24986 nonzeros.
Reduced MIP has 2425 binaries, 0 generals, 0 SOSs, and 0 indicators.
Presolve time = 0.02 sec. (17.55 ticks)
Probing time = 0.00 sec. (3.65 ticks)
Clique table members: 386.
MIP emphasis: balance optimality and feasibility.
MIP search method: dynamic search.
Parallel mode: none, using 1 thread.
Root relaxation solution time = 0.15 sec. (166.06 ticks)

        Nodes                                         Cuts/
   Node  Left     Objective  IInf  Best Integer    Best Bound    ItCnt     Gap

      0     0        0.0000   477                      0.0000     1387         
      0     0        0.0000   259                     Cuts: 3     1903         
      0     2        0.0000    72                      0.0000     1903         
Elapsed time = 4.66 sec. (5164.75 ticks, tree = 0.01 MB, solutions = 0)
      1     3        0.0000   442                      0.0000     4236         
      2     4        0.0000   304                      0.0000     5686         
      3     5        0.0000   467                      0.0000     7516         
      4     6        0.0000   454                      0.0000     8016         
      5     7        0.0000   457                      0.0000     9837         
      7     9        0.0000   473                      0.0000    10619         
      9    11        0.0000   475                      0.0000    12141         
     11    13        0.0000   482                      0.0000    12850         
     13    15        0.0000   452                      0.0000    13452         
     17    19        0.0000   402                      0.0000    16686         
Elapsed time = 8.49 sec. (9781.99 ticks, tree = 0.08 MB, solutions = 0)
     21    23        0.0000   427                      0.0000    18008         
     27    29        0.0000   371                      0.0000    21952         
     30    32        0.0000   258                      0.0000    28593         
     35    37        0.0000   199                      0.0000    34694         
     41    43        0.0000   224                      0.0000    40899         
     49    51        0.0000   211                      0.0000    46769         
     55    57        0.0000   205                      0.0000    48829         
     65    65        0.0000   175                      0.0000    56112         
     81    75        0.0000   106                      0.0000    64323         
    101    72    infeasible                            0.0000    75330         
Elapsed time = 18.40 sec. (19977.59 ticks, tree = 0.39 MB, solutions = 0)
    123    72        0.0000   186                      0.0000    86322         
    143    72    infeasible                            0.0000    98455         
*   147     1      integral     0        0.0000        0.0000    99589    0.00%

Clique cuts applied:  3
Zero-half cuts applied:  2

Root node processing (before b&c):
  Real time             =    4.64 sec. (5153.36 ticks)
Sequential b&c:
  Real time             =   16.04 sec. (16935.97 ticks)
                          ------------
Total (root+branch&cut) =   20.68 sec. (22089.33 ticks)
Version identifier: 22.1.0.0 | 2022-03-09 | 1a383f8ce
CPXPARAM_Threads                                 1
CPXPARAM_MIP_Strategy_VariableSelect             3
CPXPARAM_TimeLimit                               576.49208018299998
Tried aggregator 1 time.
MIP Presolve eliminated 13 rows and 0 columns.
MIP Presolve modified 2 coefficients.
Reduced MIP has 606 rows, 2475 columns, and 25514 nonzeros.
Reduced MIP has 2475 binaries, 0 generals, 0 SOSs, and 0 indicators.
Presolve time = 0.02 sec. (15.42 ticks)
Probing time = 0.00 sec. (3.64 ticks)
Tried aggregator 1 time.
Detecting symmetries...
Reduced MIP has 606 rows, 2475 columns, and 25514 nonzeros.
Reduced MIP has 2475 binaries, 0 generals, 0 SOSs, and 0 indicators.
Presolve time = 0.02 sec. (17.92 ticks)
Probing time = 0.00 sec. (3.64 ticks)
Clique table members: 394.
MIP emphasis: balance optimality and feasibility.
MIP search method: dynamic search.
Parallel mode: none, using 1 thread.
Root relaxation solution time = 0.20 sec. (227.98 ticks)

        Nodes                                         Cuts/
   Node  Left     Objective  IInf  Best Integer    Best Bound    ItCnt     Gap

      0     0        0.0000   508                      0.0000     1732         
      0     2        0.0000   210                      0.0000     1732         
Elapsed time = 3.94 sec. (4342.73 ticks, tree = 0.01 MB, solutions = 0)
      1     3        0.0000   481                      0.0000     4268         
      2     4        0.0000   274                      0.0000     5949         
      3     5        0.0000   379                      0.0000     8088         
      5     7        0.0000   398                      0.0000    10132         
      7     9        0.0000   442                      0.0000    11685         
      9     9    infeasible                            0.0000    17251         
     10    10        0.0000   441                      0.0000    17257         
     11     9    infeasible                            0.0000    22941         
     13     9    infeasible                            0.0000    29568         
     16    10    infeasible                            0.0000    34075         
Elapsed time = 9.99 sec. (11449.57 ticks, tree = 0.04 MB, solutions = 0)
     23    15        0.0000   253                      0.0000    41443         
     28    18    infeasible                            0.0000    51085         
     33    23        0.0000   213                      0.0000    55942         
     37    27        0.0000   154                      0.0000    61993         
     41    29        0.0000    74                      0.0000    69123         
     49    31    infeasible                            0.0000    75441         
     54    30    infeasible                            0.0000    82663         
     60    30        0.0000    70                      0.0000    91776         
     65    29        0.0000    82                      0.0000   101211         
     73    29        0.0000   213                      0.0000   111292         
Elapsed time = 20.19 sec. (22290.08 ticks, tree = 0.13 MB, solutions = 0)
     77    33        0.0000   159                      0.0000   121074         
     82    32    infeasible                            0.0000   130497         
     84    32        0.0000   174                      0.0000   137465         
     88    32        0.0000   188                      0.0000   146269         
     94    32        0.0000   278                      0.0000   153755         
    100    34        0.0000   221                      0.0000   160382         
    105    37        0.0000   179                      0.0000   166024         
    109    39        0.0000   196                      0.0000   172601         
    114    40        0.0000   243                      0.0000   181209         
    119    41        0.0000   198                      0.0000   187476         
Elapsed time = 30.23 sec. (33030.17 ticks, tree = 0.17 MB, solutions = 0)
    123    43        0.0000   197                      0.0000   194330         
    127    47        0.0000   208                      0.0000   200630         
    130    50        0.0000   148                      0.0000   206025         
    135    53    infeasible                            0.0000   212155         
    139    57        0.0000   216                      0.0000   218240         
    144    62        0.0000   147                      0.0000   221795         
    149    65    infeasible                            0.0000   228463         
    155    67        0.0000    87                      0.0000   235464         
    161    67        0.0000   159                      0.0000   252153         
    167    67        0.0000   216                      0.0000   260285         
Elapsed time = 40.34 sec. (43623.24 ticks, tree = 0.29 MB, solutions = 0)
    175    69        0.0000   187                      0.0000   268601         
    182    67    infeasible                            0.0000   277802         
    189    68        0.0000    76                      0.0000   284724         
    195    68        0.0000   215                      0.0000   293696         
    201    68        0.0000   245                      0.0000   302214         
    206    69        0.0000   227                      0.0000   311955         
    212    71        0.0000   222                      0.0000   320502         
    216    71        0.0000   179                      0.0000   330182         
    221    74        0.0000   220                      0.0000   336635         
    227    74    infeasible                            0.0000   344595         
Elapsed time = 50.38 sec. (54285.96 ticks, tree = 0.30 MB, solutions = 0)
    230    75        0.0000   218                      0.0000   350123         
    237    76        0.0000   218                      0.0000   357511         
    248    77        0.0000   203                      0.0000   364862         
    258    77        0.0000   178                      0.0000   373213         
    268    77        0.0000   141                      0.0000   381085         
    275    78    infeasible                            0.0000   389779         
    280    82        0.0000   202                      0.0000   394523         
    290    83    infeasible                            0.0000   395647         
    300    83    infeasible                            0.0000   397550         
    308    87        0.0000   213                      0.0000   399176         
Elapsed time = 59.99 sec. (64675.04 ticks, tree = 0.38 MB, solutions = 0)
    318    89        0.0000   185                      0.0000   400498         
    325    91    infeasible                            0.0000   401101         
    334    92        0.0000   295                      0.0000   403130         
    340    96        0.0000   218                      0.0000   405957         
    347    99    infeasible                            0.0000   408567         
    355   104    infeasible                            0.0000   410004         
    363   104        0.0000   190                      0.0000   411998         
    370   109        0.0000   203                      0.0000   413112         
    379   112    infeasible                            0.0000   415036         
    389   115        0.0000   156                      0.0000   417525         
Elapsed time = 69.10 sec. (74952.41 ticks, tree = 0.55 MB, solutions = 0)
    398   114        0.0000   174                      0.0000   420984         
    406   114        0.0000   169                      0.0000   424273         
    415   115    infeasible                            0.0000   426872         
    426   116        0.0000   161                      0.0000   428949         
    437   115    infeasible                            0.0000   431250         
    446   118        0.0000   158                      0.0000   432587         
    458   116    infeasible                            0.0000   434529         
    469   117        0.0000   154                      0.0000   436189         
    481   114    infeasible                            0.0000   438453         
    491   114    infeasible                            0.0000   441084         
Elapsed time = 78.27 sec. (85014.92 ticks, tree = 0.55 MB, solutions = 0)
    500   117        0.0000   173                      0.0000   442652         
    511   116    infeasible                            0.0000   444953         
    520   117        0.0000   165                      0.0000   446881         
    531   116    infeasible                            0.0000   449264         
    542   117        0.0000   166                      0.0000   450717         
    553   118        0.0000   170                      0.0000   452524         
    565   118        0.0000   174                      0.0000   454104         
    577   118        0.0000   170                      0.0000   455989         
    588   117    infeasible                            0.0000   458085         
    600   115        0.0000   176                      0.0000   460199         
Elapsed time = 87.44 sec. (95119.74 ticks, tree = 0.55 MB, solutions = 0)
    611   114    infeasible                            0.0000   462882         
    622   115    infeasible                            0.0000   464509         
    634   115    infeasible                            0.0000   466287         
    646   115    infeasible                            0.0000   467463         
    659   112        0.0000   176                      0.0000   469355         
    671   112        0.0000   178                      0.0000   471145         
    683   112        0.0000   177                      0.0000   472943         
    695   112        0.0000   184                      0.0000   474749         
    706   111        0.0000   187                      0.0000   476635         
    737   118        0.0000   198                      0.0000   483848         
Elapsed time = 98.94 sec. (107859.77 ticks, tree = 0.57 MB, solutions = 0)
    779   119        0.0000   166                      0.0000   491337         
    820   120    infeasible                            0.0000   498239         
    861   118    infeasible                            0.0000   505296         
    896   123        0.0000   134                      0.0000   513539         
    937   124        0.0000    87                      0.0000   521979         
    980   125        0.0000    82                      0.0000   531044         
   1024   125        0.0000   150                      0.0000   538910         
   1072   123        0.0000   138                      0.0000   544617         
   1112   122    infeasible                            0.0000   553147         
   1158   121    infeasible                            0.0000   561691         
Elapsed time = 134.27 sec. (147143.49 ticks, tree = 0.59 MB, solutions = 0)
   1199   122        0.0000   129                      0.0000   568347         
   1242   127    infeasible                            0.0000   572688         
   1285   130        0.0000   109                      0.0000   577186         
   1334   127    infeasible                            0.0000   581655         
   1381   128        0.0000   106                      0.0000   585570         
   1427   127    infeasible                            0.0000   590275         
   1467   131    infeasible                            0.0000   594797         
   1513   131    infeasible                            0.0000   598975         
   1561   131        0.0000   116                      0.0000   602694         
   1606   130        0.0000    52                      0.0000   607356         
Elapsed time = 169.56 sec. (185701.17 ticks, tree = 0.64 MB, solutions = 0)
   1651   129        0.0000    93                      0.0000   611314         
   1696   128        0.0000    90                      0.0000   615256         
   1741   131        0.0000   124                      0.0000   620056         
   1792   128        0.0000   126                      0.0000   624144         

Performing restart 1

Repeating presolve.
Tried aggregator 1 time.
MIP Presolve modified 7275 coefficients.
Reduced MIP has 606 rows, 2475 columns, and 24059 nonzeros.
Reduced MIP has 2475 binaries, 0 generals, 0 SOSs, and 0 indicators.
Presolve time = 0.03 sec. (24.67 ticks)
Tried aggregator 1 time.
Reduced MIP has 606 rows, 2475 columns, and 24059 nonzeros.
Reduced MIP has 2475 binaries, 0 generals, 0 SOSs, and 0 indicators.
Presolve time = 0.02 sec. (17.73 ticks)
Represolve time = 0.13 sec. (90.76 ticks)
   1820     0        0.0000   455                     Cuts: 5   630262         
   1820     0        0.0000   183                  Cliques: 2   630695         
   1820     0        0.0000   488                   Cuts: 145   632391         
   1820     0        0.0000   211                  Cliques: 3   632772         
   1820     0        0.0000   395                    Cuts: 25   634133         
   1820     0        0.0000   162                     Cuts: 7   635087         
   1820     0        0.0000   482                    Cuts: 22   636570         
   1820     0        0.0000   461                    Cuts: 16   637623         
   1820     0        0.0000   391                     Cuts: 6   638740         
   1820     0        0.0000   268                    Cuts: 12   639911         
   1820     0        0.0000   255                     Cuts: 8   640959         
   1820     0        0.0000   269                     Cuts: 5   641557         
   1820     2        0.0000   116                      0.0000   641557         
   1830     8        0.0000   340                      0.0000   659296         
   1850    20        0.0000   338                      0.0000   670412         
   1880    26        0.0000   300                      0.0000   694463         
   1913    33    infeasible                            0.0000   716336         
   1938    46        0.0000   292                      0.0000   733911         
Elapsed time = 224.19 sec. (245295.34 ticks, tree = 0.18 MB, solutions = 0)
   1966    50        0.0000   110                      0.0000   773955         
   1993    53        0.0000    76                      0.0000   806509         
   2015    49    infeasible                            0.0000   841064         
   2041    47    infeasible                            0.0000   852781         
   2075    49        0.0000   191                      0.0000   865807         
   2106    50        0.0000   149                      0.0000   878036         
   2141    51        0.0000   166                      0.0000   894770         
   2181    48        0.0000   186                      0.0000   911271         
   2212    45        0.0000   274                      0.0000   932588         
   2250    49        0.0000   285                      0.0000   944765         
Elapsed time = 260.84 sec. (284775.31 ticks, tree = 0.17 MB, solutions = 0)
   2284    55        0.0000   163                      0.0000   957587         
   2314    53        0.0000   183                      0.0000   970546         
   2353    51        0.0000   276                      0.0000   987683         
   2393    53        0.0000   238                      0.0000  1000709         
   2435    51    infeasible                            0.0000  1014320         
   2477    53        0.0000   237                      0.0000  1028444         
   2523    51    infeasible                            0.0000  1042429         
   2558    50        0.0000   264                      0.0000  1055433         
   2596    50        0.0000   266                      0.0000  1068956         
   2627    51    infeasible                            0.0000  1082092         
Elapsed time = 296.34 sec. (323438.50 ticks, tree = 0.17 MB, solutions = 0)
   2666    56        0.0000   225                      0.0000  1094113         
   2708    56        0.0000   222                      0.0000  1107418         

Performing restart 2

Repeating presolve.
Tried aggregator 1 time.
Reduced MIP has 606 rows, 2475 columns, and 24059 nonzeros.
Reduced MIP has 2475 binaries, 0 generals, 0 SOSs, and 0 indicators.
Presolve time = 0.02 sec. (14.23 ticks)
Tried aggregator 1 time.
Reduced MIP has 606 rows, 2475 columns, and 24059 nonzeros.
Reduced MIP has 2475 binaries, 0 generals, 0 SOSs, and 0 indicators.
Presolve time = 0.02 sec. (17.73 ticks)
Represolve time = 1.45 sec. (417.47 ticks)
   2730     0        0.0000   476                     Cuts: 9  1117722         
   2730     0        0.0000   344                     Cuts: 5  1118641         
   2730     0        0.0000   283                     Cuts: 2  1119073         
   2730     0        0.0000   426                    Cuts: 21  1120996         
   2730     0        0.0000   394                    Cuts: 10  1122709         
   2730     0        0.0000   390                     Cuts: 7  1123169         
   2730     0        0.0000   342                    Cuts: 11  1124639         
   2730     0        0.0000   380                    Cuts: 19  1126262         
   2730     0        0.0000   230                 ZeroHalf: 2  1127270         
   2730     0        0.0000   377                     Cuts: 3  1128490         
   2730     0        0.0000   481                    Cuts: 16  1130590         
   2730     0        0.0000   505                    Cuts: 10  1132538         
   2730     2        0.0000   193                      0.0000  1132538         
   2740     8        0.0000   347                      0.0000  1147352         
   2764    22        0.0000   308                      0.0000  1163203         
   2791    31        0.0000   196                      0.0000  1197472         
   2827    35    infeasible                            0.0000  1240461         
   2865    55    infeasible                            0.0000  1278964         
   2908    56        0.0000   169                      0.0000  1313584         
   2962    55        0.0000   184                      0.0000  1341503         
Elapsed time = 374.42 sec. (406332.62 ticks, tree = 0.28 MB, solutions = 0)
   3005    60    infeasible                            0.0000  1366329         
   3054    69        0.0000   176                      0.0000  1389872         
   3108    59    infeasible                            0.0000  1421895         
   3157    62    infeasible                            0.0000  1449029         
   3186    71        0.0000   207                      0.0000  1480452         
   3231    76        0.0000   200                      0.0000  1508540         
   3284    79        0.0000   159                      0.0000  1551543         
   3330    79        0.0000   148                      0.0000  1615482         
   3379    76    infeasible                            0.0000  1667278         
   3435    84        0.0000   215                      0.0000  1710503         
Elapsed time = 413.41 sec. (445102.36 ticks, tree = 0.46 MB, solutions = 0)
   3486    87        0.0000   194                      0.0000  1767324         
   3536    93        0.0000   181                      0.0000  1824717         
   3589    94        0.0000   168                      0.0000  1883843         
   3650    91    infeasible                            0.0000  1942616         
   3698    95        0.0000   176                      0.0000  1997705         
   3755    92        0.0000   172                      0.0000  2053869         
   3802    91        0.0000   141                      0.0000  2110255         
   3850    93        0.0000   194                      0.0000  2161392         
   3910    91        0.0000   213                      0.0000  2211676         
   3960    89    infeasible                            0.0000  2268675         
Elapsed time = 454.94 sec. (483585.71 ticks, tree = 0.50 MB, solutions = 0)
   3995    84    infeasible                            0.0000  2315774         
   4030    91        0.0000   196                      0.0000  2361463         
   4079    90    infeasible                            0.0000  2413952         
   4130    95    infeasible                            0.0000  2455751         
   4196    97        0.0000   184                      0.0000  2497014         
   4256    97        0.0000   166                      0.0000  2545040         
   4313    96        0.0000   184                      0.0000  2600618         
   4373    94        0.0000   223                      0.0000  2644808         
   4400    97        0.0000   153                      0.0000  2693975         
   4437   104        0.0000   170                      0.0000  2741292         
Elapsed time = 495.13 sec. (522301.08 ticks, tree = 0.60 MB, solutions = 0)
   4485    94    infeasible                            0.0000  2802960         
   4517    98    infeasible                            0.0000  2847510         
   4551    98    infeasible                            0.0000  2890900         
   4576    97        0.0000    97                      0.0000  2928631         
   4610   103        0.0000   229                      0.0000  2963131         
   4642   103        0.0000   220                      0.0000  3016296         
   4659   102        0.0000   162                      0.0000  3052108         
   4684   101    infeasible                            0.0000  3113388         
   4705   104        0.0000   131                      0.0000  3157344         
   4720   103        0.0000   111                      0.0000  3202174         
Elapsed time = 534.75 sec. (561086.01 ticks, tree = 0.60 MB, solutions = 0)
   4752   103        0.0000   126                      0.0000  3232283         
   4801   102        0.0000   120                      0.0000  3238112         
   4844   103        0.0000   162                      0.0000  3244364         
   4890   101    infeasible                            0.0000  3249900         
   4928   101    infeasible                            0.0000  3257205         
   4972   105        0.0000   137                      0.0000  3262580         
   5023   103    infeasible                            0.0000  3266808         
   5065   101    infeasible                            0.0000  3274202         
   5100   104    infeasible                            0.0000  3282692         
   5141   105        0.0000   212                      0.0000  3288263         
Elapsed time = 570.42 sec. (600068.44 ticks, tree = 0.61 MB, solutions = 0)
   5186   104        0.0000   211                      0.0000  3292794         

Clique cuts applied:  30
Cover cuts applied:  4
Mixed integer rounding cuts applied:  4
Zero-half cuts applied:  25
Gomory fractional cuts applied:  1

Root node processing (before b&c):
  Real time             =    3.93 sec. (4331.16 ticks)
Sequential b&c:
  Real time             =  572.56 sec. (602615.47 ticks)
                          ------------
Total (root+branch&cut) =  576.49 sec. (606946.63 ticks)
Primal:	97
Dual:	100
Status:	Feasible
Time:	600.012
Sequence:
	10
	4
	4
